p cnf 5435 38
-836 0
-1027 -1001 0
-1028 1001 0
1028 1029 0
-1029 -1028 0
-1027 0
-838 -965 0
965 0
-1030 -1029 1031 0
-1031 1030 0
1028 1031 0
-1032 0
-1032 0
1026 0
1034 0
-1035 0
1026 0
-1080 0
1033 1080 0
-1081 0
1030 1082 0
-1082 -1029 0
1031 1082 1083 0
-1083 -1031 0
-1083 -1082 0
-1085 -1030 0
-1085 -1084 0
-1091 -1090 1094 0
-1244 1210 0
-1255 -1254 0
-1256 -1231 0
-1288 -1286 0
1289 0
-1290 1083 0
-1290 1255 0
1085 1216 1346 0
-1346 -1216 0
1292 1346 1347 0
